SAT
38 -149 -51 63 -1 123 -7 76 -59 19 110 22 -48 10 146 52 64 32 -37 -117 118 -91 57 66 80 -150 -39 143 93 8 -137 99 45 147 -128 -115 79 87 20 139 21 33 -41 77 -132 -114 127 -95 -100 30 -103 5 -60 68 -112 -18 -86 -75 133 130 -58 -134 -15 -31 -55 126 94 -116 -83 131 12 72 -145 -29 -56 -74 92 16 67 125 85 -122 119 -142 -90 -26 -135 109 36 -144 23 -136 107 124 -54 97 -4 -61 84 -70 -69 11 138 27 -25 47 -13 53 71 -17 44 62 -104 102 34 105 -78 141 43 73 9 -14 50 -6 3 -96 101 81 40 111 -113 89 -42 98 -2 148 129 -88 -35 82 -120 65 -108 28 -24 121 -106 49 46 -140 0
